language Essence 1.3

letting bot_end be
        [671, 2506, 2240, 2252, 3036, 1762, 978, 493, 366, 1221, 1249, 1528, 2624, 2850, 3074, 1883; int(1..16)]
letting bot_start be
        [2854, 462, 1902, 1522, 1294, 2067, 706, 3009, 1164, 3027, 1678, 746, 1833, 2597, 2417, 781; int(1..16)]
letting bots be 16
letting buffer_col be 2
letting buffer_row be 2
letting corridor_size be 1
letting n_shelves_col be 44
letting n_shelves_row be 10
letting shelf_col_size be 2
letting shelf_row_size be 1
